     Program PWSCF v.6.7MaX starts on  9Apr2023 at 11:51:17

     Reading input from si.bandspy.in

     Current dimensions of program PWSCF are:
     Max number of different atomic species (ntypx) = 10
     Max number of k-points (npk) =  40000
     Max angular momentum in pseudopotentials (lmaxx) =  3

     Subspace diagonalization in iterative solution of the eigenvalue problem:
     a serial algorithm will be used

     bravais-lattice index     =            2
     lattice parameter (alat)  =      10.7000  a.u.
     unit-cell volume          =     306.2607 (a.u.)^3
     number of atoms/cell      =            2
     number of atomic types    =            1
     number of electrons       =         8.00
     number of Kohn-Sham states=            8
     kinetic-energy cutoff     =      50.0000  Ry
     charge density cutoff     =     200.0000  Ry
     scf convergence threshold =      1.0E-08
     mixing beta               =       0.7000
     number of iterations used =            8  plain     mixing
     Exchange-correlation=  SLA  PW   PBE  PBE
                           (   1   4   3   4   0   0   0)

     celldm(1)=  10.700000  celldm(2)=   0.000000  celldm(3)=   0.000000
     celldm(4)=   0.000000  celldm(5)=   0.000000  celldm(6)=   0.000000

     crystal axes: (cart. coord. in units of alat)
               a(1) = (  -0.500000   0.000000   0.500000 )
               a(2) = (   0.000000   0.500000   0.500000 )
               a(3) = (  -0.500000   0.500000   0.000000 )

     reciprocal axes: (cart. coord. in units 2 pi/alat)
               b(1) = ( -1.000000 -1.000000  1.000000 )
               b(2) = (  1.000000  1.000000  1.000000 )
               b(3) = ( -1.000000  1.000000 -1.000000 )

     PseudoPot. # 1 for Si read from file:
     pseudo/Si.pbe-rrkj.UPF
     MD5 check sum: cf7ab5690cd9a85b22c4813f7e365554
     Pseudo is Norm-conserving, Zval =  4.0
     Generated by new atomic code, or converted to UPF format
     Using radial grid of  883 points,  3 beta functions with:
                l(1) =   0
                l(2) =   0
                l(3) =   1

     atomic species   valence    mass     pseudopotential
        Si             4.00    28.08550     Si( 1.00)

     48 Sym. Ops., with inversion, found (24 have fractional translation)

   Cartesian axes

     site n.     atom                  positions (alat units)
         1           Si  tau(   1) = (   0.0000000   0.0000000   0.0000000  )
         2           Si  tau(   2) = (   0.2500000   0.2500000   0.2500000  )

     number of k points=    20
                       cart. coord. in units 2pi/alat
        k(    1) = (  -1.0000000   0.0000000   0.0000000), wk =   0.0000000
        k(    2) = (  -0.8947000   0.0000000   0.0000000), wk =   0.0105263
        k(    3) = (  -0.7895000   0.0000000   0.0000000), wk =   0.0210526
        k(    4) = (  -0.6842000   0.0000000   0.0000000), wk =   0.0315789
        k(    5) = (  -0.5789000   0.0000000   0.0000000), wk =   0.0421053
        k(    6) = (  -0.4737000   0.0000000   0.0000000), wk =   0.0526316
        k(    7) = (  -0.3684000   0.0000000   0.0000000), wk =   0.0631579
        k(    8) = (  -0.2632000   0.0000000   0.0000000), wk =   0.0736842
        k(    9) = (  -0.1579000   0.0000000   0.0000000), wk =   0.0842105
        k(   10) = (  -0.0526000   0.0000000   0.0000000), wk =   0.0947368
        k(   11) = (   0.0526000   0.0000000   0.0000000), wk =   0.1052632
        k(   12) = (   0.1579000   0.0000000   0.0000000), wk =   0.1157895
        k(   13) = (   0.2632000   0.0000000   0.0000000), wk =   0.1263158
        k(   14) = (   0.3684000   0.0000000   0.0000000), wk =   0.1368421
        k(   15) = (   0.4737000   0.0000000   0.0000000), wk =   0.1473684
        k(   16) = (   0.5789000   0.0000000   0.0000000), wk =   0.1578947
        k(   17) = (   0.6842000   0.0000000   0.0000000), wk =   0.1684211
        k(   18) = (   0.7895000   0.0000000   0.0000000), wk =   0.1789474
        k(   19) = (   0.8947000   0.0000000   0.0000000), wk =   0.1894737
        k(   20) = (   1.0000000   0.0000000   0.0000000), wk =   0.2000000

     Initial potential from superposition of free atoms

     starting charge    7.99889, renormalised to    8.00000
     Starting wfcs are    8 randomized atomic wfcs

     Self-consistent Calculation

     iteration #  1     ecut=    50.00 Ry     beta= 0.70
     Davidson diagonalization with overlap
     ethr =  1.00E-02,  avg # of iterations =  3.8

     total energy              =     -15.38746040 Ry
     estimated scf accuracy    <       0.09491089 Ry

[...]

     total energy              =     -15.39352973 Ry
     estimated scf accuracy    <       0.00000003 Ry

     iteration #  6     ecut=    50.00 Ry     beta= 0.70
     Davidson diagonalization with overlap
     ethr =  3.97E-10,  avg # of iterations =  2.0

     End of self-consistent calculation

          k =-1.0000 0.0000 0.0000 (  1804 PWs)   bands (ev):

    -2.0890  -2.0890   2.7308   2.7308   6.1664   6.1664  14.3543  14.3543

[...]

          k =-0.0526 0.0000 0.0000 (  1836 PWs)   bands (ev):

[...]

          k = 0.0526 0.0000 0.0000 (  1836 PWs)   bands (ev):

[...]

          k = 1.0000 0.0000 0.0000 (  1804 PWs)   bands (ev):

    -2.0890  -2.0890   2.7308   2.7308   6.1664   6.1664  14.3543  14.3544

     highest occupied, lowest unoccupied level (ev):     5.2806    6.0227

!    total energy              =     -15.39352974 Ry
     estimated scf accuracy    <          2.4E-09 Ry

     The total energy is the sum of the following terms:
     one-electron contribution =       4.08913550 Ry
     hartree contribution      =       1.40035769 Ry
     xc contribution           =      -4.77297266 Ry
     ewald contribution        =     -16.11005026 Ry

     convergence has been achieved in   6 iterations

     Writing output data file tmp/silicon.save/

     General routines

     Parallel routines

   This run was terminated on:  11:51:21   9Apr2023

   JOB DONE.